149
0 8 73 140 2 1 110 42 81 36 
38 14 125 121 56 139 28 115 129 100 
102 45 29 116 18 57 71 17 15 99 
83 142 78 48 145 122 126 46 49 111 
109 22 132 51 4 39 91 41 21 43 
84 119 107 90 92 44 68 93 50 35 
30 69 40 117 13 124 7 77 88 54 
74 75 31 60 55 136 133 130 25 101 
24 108 112 67 64 61 79 16 32 86 
66 113 58 135 19 89 94 96 6 11 
82 123 47 105 106 143 104 27 20 34 
33 98 76 147 3 137 70 114 131 87 
72 59 146 141 63 5 138 120 10 144 
134 103 118 85 128 12 80 26 97 127 
65 95 37 62 148 9 53 23 52 
